data/mip_solutions/furman_sahinidis/reduced_transportation/37sp-yfyv_gurobi.sol
Elapsed time: 89.504707098
Nodes explored: 34512
Upper bound: 36.0000099087
Lower bound: 35.0
y[0,13]=1
y[1,7]=1
y[1,8]=1
y[1,9]=1
y[1,14]=1
y[2,0]=1
y[2,1]=1
y[2,2]=1
y[2,10]=1
y[3,0]=1
y[4,0]=1
y[4,13]=1
y[4,16]=1
y[5,0]=1
y[6,16]=1
y[7,0]=1
y[8,11]=1
y[8,16]=1
y[9,0]=1
y[10,16]=1
y[11,0]=1
y[11,6]=1
y[12,0]=1
y[13,16]=1
y[14,16]=1
y[15,16]=1
y[16,16]=1
y[17,9]=1
y[18,0]=1
y[19,0]=1
y[20,3]=1
y[20,4]=1
y[20,5]=1
y[20,8]=1
y[20,12]=1
y[20,15]=1
y[20,16]=1
q[0,5,13,13]=16114.0
q[0,5,13,20]=8501.00000001
q[0,6,0,7]=-1.19973644479e-09
q[0,6,7,9]=-1.19371179608e-11
q[0,6,13,11]=-1.83354131877e-09
q[0,6,13,13]=3356.00000001
q[0,6,13,15]=6490.0
q[0,6,13,18]=-1.16124283522e-08
q[0,7,13,11]=27907.0
q[0,7,13,16]=11477.0
q[0,8,13,12]=17523.0
q[0,8,13,14]=-2.86490831058e-10
q[0,8,13,17]=2502.0
q[0,8,13,19]=29205.0
q[1,7,14,17]=3289.8
q[1,7,14,18]=544.7
q[1,7,14,19]=2301.5
q[1,8,5,13]=-4.05190672552e-11
q[1,8,5,15]=-7.63975549489e-11
q[1,8,7,9]=193.0
q[1,8,8,29]=88.7000000002
q[1,8,9,17]=139.3
q[1,8,14,18]=10350.5
q[1,8,14,21]=4568.5
q[1,9,14,19]=6136.0
q[1,10,14,18]=1534.0
q[1,11,14,16]=16261.5
q[1,11,14,18]=1643.6
q[1,11,14,22]=1500.0
q[1,12,14,18]=2070.9
q[1,13,14,16]=2301.0
q[1,14,5,14]=-4.07565730334e-12
q[1,14,14,17]=460.2
q[1,15,14,20]=767.0
q[1,16,14,18]=12322.3
q[1,16,14,20]=1023.5
q[1,17,14,17]=-5.72665895911e-11
q[1,17,14,18]=1534.0
q[1,18,14,20]=12272.0
q[1,19,14,21]=3451.5
q[1,20,14,21]=1917.5
q[2,2,0,11]=65933.0
q[2,2,0,17]=9846.0
q[2,2,2,10]=3201.0
q[2,3,0,16]=67604.9
q[2,3,0,20]=1846.1
q[2,3,1,3]=7898.0
q[2,3,10,28]=1631.0
q[2,4,0,6]=8256.0
q[2,4,0,7]=39384.0
q[2,4,0,8]=26115.5
q[2,4,0,12]=4810.5
q[2,4,0,14]=414.0
q[3,8,0,8]=65984.5
q[3,8,0,9]=39384.0
q[3,8,0,11]=16732.9
q[3,8,0,16]=5938.6
q[3,9,0,11]=32010.0
q[3,9,0,12]=-2.82599583546e-09
q[4,13,5,16]=-1.27074722965e-09
q[4,13,13,14]=3894.0
q[4,13,13,16]=77198.8
q[4,13,13,17]=10478.0
q[4,13,16,31]=29680.2
q[4,14,13,16]=24250.2
q[4,15,16,31]=40417.0
q[4,16,16,31]=703255.8
q[4,17,13,20]=40174.0
q[4,17,16,31]=40660.0
q[4,18,13,18]=103840.0
q[4,18,16,31]=542832.0
q[4,19,0,27]=3.99999999939
q[4,19,16,31]=181872.5
q[4,20,16,31]=303127.5
q[4,21,16,31]=214210.1
q[4,22,16,31]=32333.6
q[4,23,16,31]=157626.3
q[5,6,0,6]=1590.0
q[5,6,10,28]=-1.84577967844e-10
q[5,7,0,8]=6360.0
q[5,8,0,10]=3486.0
q[5,8,0,11]=9876.0
q[5,8,0,15]=2538.0
q[5,9,0,10]=6360.0
q[5,10,0,12]=1590.0
q[5,11,0,12]=5344.5
q[5,11,0,13]=14769.0
q[5,12,0,12]=-1.54614099301e-10
q[5,12,0,16]=2146.5
q[5,13,0,15]=2385.0
q[5,14,0,14]=477.0
q[5,15,0,16]=-6.57109922031e-11
q[5,15,0,24]=795.0
q[5,16,0,18]=13833.0
q[5,17,0,18]=1590.0
q[5,17,0,20]=-1.15960574476e-10
q[5,18,0,18]=8189.8
q[5,18,0,19]=4530.2
q[5,19,0,20]=3577.5
q[5,20,0,21]=5962.5
q[5,21,0,23]=3356.4
q[5,21,0,26]=857.1
q[5,22,0,24]=636.0
q[5,23,0,25]=3100.5
q[6,15,16,31]=2216.0
q[6,16,16,31]=38558.4
q[6,17,16,31]=4432.0
q[6,18,16,31]=35456.0
q[6,19,16,31]=9972.0
q[6,20,16,31]=16620.0
q[6,21,16,31]=11744.8
q[6,22,16,31]=1772.8
q[6,23,16,31]=8642.4
q[7,16,0,20]=19716.6
q[7,16,0,21]=20129.4
q[7,17,0,18]=4580.0
q[7,17,0,20]=-2.13927051971e-10
q[7,18,0,18]=36640.0
q[7,19,0,19]=4675.3
q[7,19,0,24]=5629.7
q[7,20,0,24]=17175.0
q[7,21,0,24]=12137.0
q[7,22,0,24]=1832.0
q[7,23,0,24]=4774.0
q[7,23,0,25]=4157.0
q[8,15,16,31]=1984.0
q[8,16,0,18]=3.42424755218e-09
q[8,16,16,31]=34521.6
q[8,17,16,31]=3968.0
q[8,18,11,18]=4666.0
q[8,18,16,31]=27078.0
q[8,19,16,31]=8928.0
q[8,20,16,31]=14880.0
q[8,21,16,31]=10515.2
q[8,22,16,31]=1587.2
q[8,23,16,31]=7737.6
q[9,24,0,25]=5998.4
q[9,25,0,26]=-9.05931852076e-11
q[9,25,0,27]=3781.6
q[10,26,16,31]=346.0
q[10,27,16,31]=3114.0
q[10,28,16,31]=3806.0
q[10,29,16,31]=1453.2
q[10,30,16,31]=484.4
q[10,31,16,31]=1176.4
q[11,12,0,12]=1547.1
q[11,13,0,13]=-1.03860601696e-09
q[11,13,0,14]=1719.0
q[11,13,0,17]=9.22682374949e-10
q[11,14,0,14]=343.8
q[11,15,0,27]=573.0
q[11,16,0,16]=9970.2
q[11,17,0,26]=1146.0
q[11,18,0,19]=9168.0
q[11,19,0,22]=2578.5
q[11,20,0,20]=4297.5
q[11,21,0,24]=2312.9
q[11,21,6,26]=724.0
q[11,22,0,26]=458.4
q[11,23,0,23]=2234.7
q[12,17,0,18]=495.199999997
q[12,17,0,20]=1184.8
q[12,18,0,18]=13440.0
q[12,18,0,19]=-8.50573343212e-10
q[12,19,0,19]=3780.0
q[12,20,0,20]=6300.0
q[12,21,0,23]=4452.0
q[12,22,0,22]=672.0
q[12,23,0,23]=3276.0
q[13,24,16,31]=3118.8
q[13,25,16,31]=1966.2
q[14,26,16,31]=776.5
q[14,27,16,31]=6988.5
q[14,28,16,31]=8541.5
q[14,29,16,31]=3261.3
q[14,30,16,31]=1087.1
q[14,31,16,31]=6677.9
q[15,20,16,31]=2685.0
q[15,21,16,31]=1897.4
q[15,22,16,31]=286.4
q[15,23,16,31]=1396.2
q[16,31,16,31]=21282.3
q[17,14,9,17]=317.4
q[17,15,9,17]=529.0
q[17,16,9,17]=634.8
q[18,25,0,25]=14718.0
q[19,22,0,22]=687.9
q[19,22,0,23]=2978.2
q[19,22,0,25]=579.499999999
q[19,23,0,23]=2902.4
q[19,23,0,27]=17794.9
q[20,1,3,3]=6833.5
q[20,1,4,1]=67368.0
q[20,1,4,2]=8020.0
q[20,1,4,3]=8020.0
q[20,1,5,13]=778.0
q[20,1,5,14]=466.8
q[20,1,5,15]=778.0
q[20,1,5,16]=13537.2
q[20,1,5,17]=1556.0
q[20,1,8,29]=236.3
q[20,1,12,1]=100800.0
q[20,1,12,2]=31500.0
q[20,1,15,1]=1549766.0
q[20,1,15,2]=63515.0
q[20,1,15,3]=63515.0
q[20,1,15,4]=63515.0
q[20,1,15,5]=63515.0
q[20,1,15,6]=25406.0
q[20,1,15,7]=101624.0
q[20,1,15,8]=254060.0
q[20,1,16,31]=14623910.2
