data/mip_solutions/furman_sahinidis/reduced_transportation/37sp-yfyv_gurobi.log

Gurobi 6.5.2 (linux64) logging started Thu Jan 25 18:35:58 2018

Changed value of parameter LogFile to data/mip_solutions/furman_sahinidis/reduced_transportation/37sp-yfyv_gurobi.log
   Prev: gurobi.log  Default: 
Changed value of parameter Threads to 1
   Prev: 0  Min: 0  Max: 1024  Default: 0
Optimize a model with 1575 rows, 188855 columns and 566042 nonzeros
Coefficient statistics:
  Matrix range    [1e+00, 1e+07]
  Objective range [1e+00, 1e+00]
  Bounds range    [1e+00, 1e+00]
  RHS range       [1e+00, 2e+07]
Presolve removed 1215 rows and 185571 columns
Presolve time: 0.14s
Presolved: 360 rows, 3284 columns, 9459 nonzeros
Variable types: 3097 continuous, 187 integer (187 binary)

Root relaxation: objective 3.222795e+01, 1563 iterations, 0.02 seconds

    Nodes    |    Current Node    |     Objective Bounds      |     Work
 Expl Unexpl |  Obj  Depth IntInf | Incumbent    BestBd   Gap | It/Node Time

     0     0   32.22795    0   22          -   32.22795      -     -    0s
H    0     0                      44.0000000   32.22795  26.8%     -    0s
     0     0   32.83480    0   34   44.00000   32.83480  25.4%     -    0s
     0     0   32.83480    0   32   44.00000   32.83480  25.4%     -    0s
     0     0   32.97834    0   31   44.00000   32.97834  25.0%     -    0s
     0     0   33.00146    0   32   44.00000   33.00146  25.0%     -    0s
     0     0   33.64485    0   30   44.00000   33.64485  23.5%     -    0s
     0     0   33.64485    0   32   44.00000   33.64485  23.5%     -    0s
     0     0   33.98602    0   29   44.00000   33.98602  22.8%     -    0s
H    0     0                      37.0000000   33.98602  8.15%     -    0s
     0     0   33.99082    0   34   37.00000   33.99082  8.13%     -    0s
     0     0   34.17216    0   37   37.00000   34.17216  7.64%     -    0s
     0     0   34.18709    0   37   37.00000   34.18709  7.60%     -    0s
     0     0   34.29629    0   23   37.00000   34.29629  7.31%     -    0s
     0     0   34.34998    0   33   37.00000   34.34998  7.16%     -    0s
     0     0   34.35422    0   48   37.00000   34.35422  7.15%     -    0s
     0     0   34.40860    0   46   37.00000   34.40860  7.00%     -    0s
     0     0   34.42001    0   36   37.00000   34.42001  6.97%     -    0s
     0     0   34.42001    0   28   37.00000   34.42001  6.97%     -    0s
     0     0   34.42001    0   39   37.00000   34.42001  6.97%     -    0s
     0     0   34.42001    0   35   37.00000   34.42001  6.97%     -    0s
     0     0   34.42001    0   25   37.00000   34.42001  6.97%     -    0s
     0     0   34.42001    0   30   37.00000   34.42001  6.97%     -    0s
     0     0   34.44434    0   28   37.00000   34.44434  6.91%     -    1s
     0     0   34.44527    0   27   37.00000   34.44527  6.90%     -    1s
     0     0   34.44527    0   41   37.00000   34.44527  6.90%     -    1s
     0     0   34.44527    0   39   37.00000   34.44527  6.90%     -    1s
     0     2   34.44527    0   39   37.00000   34.44527  6.90%     -    1s
   536   305   35.15331   32   26   37.00000   34.44972  6.89%   102    5s
  3709  1989   36.00000   58    6   37.00000   35.00000  5.41%  47.4   10s
  9548  5497     cutoff   52        37.00000   35.00000  5.41%  30.4   15s
 10203  5903   36.00000   59   39   37.00000   35.00000  5.41%  29.4   23s
 10218  5913   36.00000   62   37   37.00000   35.00000  5.41%  29.4   25s
 10246  5932   36.00000   58   51   37.00000   35.00000  5.41%  29.3   30s
 10264  5944   35.56450   89   53   37.00000   35.00000  5.41%  29.2   35s
 10480  6034   36.00000   46    2   37.00000   35.00000  5.41%  36.9   40s
 12158  6492   35.00000   45   11   37.00000   35.00000  5.41%  41.3   45s
 14597  7230   36.00000   46    4   37.00000   35.00000  5.41%  42.7   50s
 16552  7652     cutoff   62        37.00000   35.00000  5.41%  45.3   55s
 18964  8220   36.00000   78    2   37.00000   35.00000  5.41%  47.0   60s
 21767  8941   35.00000   46    7   37.00000   35.00000  5.41%  47.6   65s
 24259  9676   35.39692  100    3   37.00000   35.00000  5.41%  48.3   70s
 26847 10291     cutoff   81        37.00000   35.00000  5.41%  48.9   75s
 29827 11691   35.00000   50   13   37.00000   35.00000  5.41%  48.1   80s
 32868 13798   35.00000   46   15   37.00000   35.00000  5.41%  47.2   85s
*34511 14967             103      36.0000099   35.00000  2.78%  47.3   88s

Cutting planes:
  Gomory: 15
  Cover: 20
  Implied bound: 170
  Clique: 4
  MIR: 109
  Flow cover: 132
  Zero half: 10
  Network: 15

Explored 34512 nodes (1646025 simplex iterations) in 88.51 seconds
Thread count was 1 (of 8 available processors)

Optimal solution found (tolerance 4.00e-02)
Best objective 3.600000990866e+01, best bound 3.500000000000e+01, gap 2.7778%
